r = [
0,18,168,159,61,256,116,236,115,296,181,134,301,156,189,134,160,120,82,86,102,267,181,186,176,73,0
];
p = [
0,7,7,22,24,17,11,15,7,17,11,28,2,29,12,5,1,12,19,15,14,23,15,22,10,14,0
];
e = [
0,8,12,20,11,10,18,9,18,10,16,19,8,13,9,2,17,6,4,16,4,8,4,6,12,9,0
];
d = [
0,25,175,313,176,423,127,341,139,342,192,162,303,246,351,146,251,132,101,101,154,329,196,363,246,183,438
];
d_bar = [
0,31,181,333,198,438,137,355,145,357,202,187,305,272,362,151,252,143,118,115,167,350,210,383,255,196,438
];
w = [
0,1.333333333,2,1,0.5,0.666666667,1.8,0.642857143,3,0.666666667,1.6,0.76,4,0.5,0.818181818,0.4,17,0.545454545,0.235294118,1.142857143,0.307692308,0.380952381,0.285714286,0.3,1.333333333,0.692307692,0
];
